(set-option :timeout 5000)
(declare-fun tvw_value (Int) Real)
(declare-fun tvw_min () Real)
(declare-fun tvw_max () Real)
(declare-fun tvw_sum () Real)
(declare-fun tvw_i () Int)
(declare-fun tvw_arrSize () Int)
(assert (<  0   (+  (div  ()   () )   0 ) ) )
(assert (and  (<=  tvw_min   (tvw_value (+  (+  (+  (+  0   0 )   0 )   0 )   0 ) ) )   (<=  (tvw_value (+  (+  (+  (+  0   0 )   0 )   0 )   0 ) )   tvw_max ) ) )
(assert (not  (<  1   (+  (div  ()   () )   0 ) ) ) )
(assert (not  (>  (+  (div  ()   () )   0 )   0 ) ) )
(check-sat)(get-model)
